&bands
prefix = carbyne
outdir = './outdir'
filband = 'carbyne.bands.dat'
lsym = .true.
/

