&CONTROL
    calculation   = "nscf"  
    restart_mode  = "from_scratch"
    prefix        = "carbyne"
    outdir        = "./"
    pseudo_dir    = "./pseudo/"
    verbosity     = "high"
    tprnfor       = .true.  
    tstress       = .true.
    etot_conv_thr =  1.0d-6
    forc_conv_thr =  1.0d-5
/

&SYSTEM
    ibrav       = 0
    nat         = 2
    ntyp        = 1
    nbnd        = 56
    occupations = 'fixed'
!    occupations = "smearing"
!    smearing    = "cold"    
!    degauss     =  1.0d-2
    ecutwfc     =  50
    ecutrho     =  400
/

&ELECTRONS
    conv_thr         =  1.000e-08
    electron_maxstep =  200
    mixing_beta      =  7.00000e-01
    startingpot      = "atomic"
    startingwfc      = "atomic+random"
/

&IONS
    ion_dynamics = "bfgs"
/

!&CELL
!    cell_dofree    = "x"
!    cell_dynamics  = "bfgs"
!    press_conv_thr =  0.05
!/

!K_POINTS {automatic}
! 40  1  1  0 0 0

ATOMIC_SPECIES
C      12.01070  C.pbe-n-kjpaw_psl.1.0.0.UPF

CELL_PARAMETERS (angstrom)
   2.565541996   0.000000000   0.000000000
   0.000000000  10.000000000   0.000000000
   0.000000000   0.000000000  10.000000000

ATOMIC_POSITIONS (angstrom)
C             0.0003855816        5.0000000000        5.0000000000
C             1.2643593134        5.0000000000        5.0000000000

K_POINTS crystal
40
  0.00000000  0.00000000  0.00000000  2.500000e-02
  0.02500000  0.00000000  0.00000000  2.500000e-02
  0.05000000  0.00000000  0.00000000  2.500000e-02
  0.07500000  0.00000000  0.00000000  2.500000e-02
  0.10000000  0.00000000  0.00000000  2.500000e-02
  0.12500000  0.00000000  0.00000000  2.500000e-02
  0.15000000  0.00000000  0.00000000  2.500000e-02
  0.17500000  0.00000000  0.00000000  2.500000e-02
  0.20000000  0.00000000  0.00000000  2.500000e-02
  0.22500000  0.00000000  0.00000000  2.500000e-02
  0.25000000  0.00000000  0.00000000  2.500000e-02
  0.27500000  0.00000000  0.00000000  2.500000e-02
  0.30000000  0.00000000  0.00000000  2.500000e-02
  0.32500000  0.00000000  0.00000000  2.500000e-02
  0.35000000  0.00000000  0.00000000  2.500000e-02
  0.37500000  0.00000000  0.00000000  2.500000e-02
  0.40000000  0.00000000  0.00000000  2.500000e-02
  0.42500000  0.00000000  0.00000000  2.500000e-02
  0.45000000  0.00000000  0.00000000  2.500000e-02
  0.47500000  0.00000000  0.00000000  2.500000e-02
  0.50000000  0.00000000  0.00000000  2.500000e-02
  0.52500000  0.00000000  0.00000000  2.500000e-02
  0.55000000  0.00000000  0.00000000  2.500000e-02
  0.57500000  0.00000000  0.00000000  2.500000e-02
  0.60000000  0.00000000  0.00000000  2.500000e-02
  0.62500000  0.00000000  0.00000000  2.500000e-02
  0.65000000  0.00000000  0.00000000  2.500000e-02
  0.67500000  0.00000000  0.00000000  2.500000e-02
  0.70000000  0.00000000  0.00000000  2.500000e-02
  0.72500000  0.00000000  0.00000000  2.500000e-02
  0.75000000  0.00000000  0.00000000  2.500000e-02
  0.77500000  0.00000000  0.00000000  2.500000e-02
  0.80000000  0.00000000  0.00000000  2.500000e-02
  0.82500000  0.00000000  0.00000000  2.500000e-02
  0.85000000  0.00000000  0.00000000  2.500000e-02
  0.87500000  0.00000000  0.00000000  2.500000e-02
  0.90000000  0.00000000  0.00000000  2.500000e-02
  0.92500000  0.00000000  0.00000000  2.500000e-02
  0.95000000  0.00000000  0.00000000  2.500000e-02
  0.97500000  0.00000000  0.00000000  2.500000e-02
