 &input
   fildyn='fildyn', zasr='simple', flfrc='flfrc'
 /
