phonons calculation
&inputph
  tr2_ph=1.0d-12,
  prefix='carbyne',
  outdir="./"
  epsil=.true. !use for insulators
  ldisp=.true.,
  nq1=1, nq2=1, nq3=20
!  amass(1)=0.0
  fildyn='carbyne.dyn',
  fildvscf="dvscf"
/
