num_wann  = 4
num_bands = 54

!Projection
begin projections
C : pz;py
end projections

!Job Control
exclude_bands : 1-2

!restart = plot
wannier_plot= .true.
wannier_plot_format = xcrysden
wannier_plot_supercell = 5 1 1

!disentanglement
!dis_win_min  = -25.0
!dis_win_max  = 7.0
!dis_froz_min = -12.0
dis_froz_max = -0.2
dis_num_iter = 1000
!dis_mix_ratio= 0.5
!dis_conv_tol = 1.0E-10
!dis_conv_window = 3

!Wannierise
num_iter = 1000
!conv_tol = 1.0E-10
!conv_window 	= 3
guiding_centres = .true.

! SYSTEM

begin unit_cell_cart
Ang
   2.565541996   0.000000000   0.000000000
   0.000000000  10.000000000   0.000000000
   0.000000000   0.000000000  10.000000000
end unit_cell_cart

begin atoms_cart
Ang
C             0.0003855816        5.0000000000        5.0000000000
C             1.2643593134        5.0000000000        5.0000000000
end atoms_cart

! KPOINTS
