&CONTROL
    calculation   = "nscf"  
    restart_mode  = "from_scratch"
    prefix        = "carbyne"
    outdir        = "./outdir/"
    pseudo_dir    = "./pseudo/"
    verbosity     = "high"
    tprnfor       = .true.  
    tstress       = .true.
    etot_conv_thr =  1.0d-6
    forc_conv_thr =  1.0d-5
/

&SYSTEM
    ibrav       = 0
    nat         = 2
    ntyp        = 1
    nbnd        = 56
    occupations = 'fixed'
!    occupations = "smearing"
!    smearing    = "cold"    
!    degauss     =  1.0d-2
    ecutwfc     =  50
    ecutrho     =  400
/

&ELECTRONS
    conv_thr         =  1.000e-08
    electron_maxstep =  200
    mixing_beta      =  7.00000e-01
    startingpot      = "atomic"
    startingwfc      = "atomic+random"
/

&IONS
    ion_dynamics = "bfgs"
/

!&CELL
!    cell_dofree    = "x"
!    cell_dynamics  = "bfgs"
!    press_conv_thr =  0.05
!/

!K_POINTS {automatic}
! 100  1  1  0 0 0

ATOMIC_SPECIES
C      12.01070  C.pbe-n-kjpaw_psl.1.0.0.UPF

CELL_PARAMETERS (angstrom)
   2.565541996   0.000000000   0.000000000
   0.000000000  10.000000000   0.000000000
   0.000000000   0.000000000  10.000000000

ATOMIC_POSITIONS (angstrom)
C             0.0003855816        5.0000000000        5.0000000000
C             1.2643593134        5.0000000000        5.0000000000

K_POINTS crystal
100
  0.00000000  0.00000000  0.00000000  1.000000e-02
  0.01000000  0.00000000  0.00000000  1.000000e-02
  0.02000000  0.00000000  0.00000000  1.000000e-02
  0.03000000  0.00000000  0.00000000  1.000000e-02
  0.04000000  0.00000000  0.00000000  1.000000e-02
  0.05000000  0.00000000  0.00000000  1.000000e-02
  0.06000000  0.00000000  0.00000000  1.000000e-02
  0.07000000  0.00000000  0.00000000  1.000000e-02
  0.08000000  0.00000000  0.00000000  1.000000e-02
  0.09000000  0.00000000  0.00000000  1.000000e-02
  0.10000000  0.00000000  0.00000000  1.000000e-02
  0.11000000  0.00000000  0.00000000  1.000000e-02
  0.12000000  0.00000000  0.00000000  1.000000e-02
  0.13000000  0.00000000  0.00000000  1.000000e-02
  0.14000000  0.00000000  0.00000000  1.000000e-02
  0.15000000  0.00000000  0.00000000  1.000000e-02
  0.16000000  0.00000000  0.00000000  1.000000e-02
  0.17000000  0.00000000  0.00000000  1.000000e-02
  0.18000000  0.00000000  0.00000000  1.000000e-02
  0.19000000  0.00000000  0.00000000  1.000000e-02
  0.20000000  0.00000000  0.00000000  1.000000e-02
  0.21000000  0.00000000  0.00000000  1.000000e-02
  0.22000000  0.00000000  0.00000000  1.000000e-02
  0.23000000  0.00000000  0.00000000  1.000000e-02
  0.24000000  0.00000000  0.00000000  1.000000e-02
  0.25000000  0.00000000  0.00000000  1.000000e-02
  0.26000000  0.00000000  0.00000000  1.000000e-02
  0.27000000  0.00000000  0.00000000  1.000000e-02
  0.28000000  0.00000000  0.00000000  1.000000e-02
  0.29000000  0.00000000  0.00000000  1.000000e-02
  0.30000000  0.00000000  0.00000000  1.000000e-02
  0.31000000  0.00000000  0.00000000  1.000000e-02
  0.32000000  0.00000000  0.00000000  1.000000e-02
  0.33000000  0.00000000  0.00000000  1.000000e-02
  0.34000000  0.00000000  0.00000000  1.000000e-02
  0.35000000  0.00000000  0.00000000  1.000000e-02
  0.36000000  0.00000000  0.00000000  1.000000e-02
  0.37000000  0.00000000  0.00000000  1.000000e-02
  0.38000000  0.00000000  0.00000000  1.000000e-02
  0.39000000  0.00000000  0.00000000  1.000000e-02
  0.40000000  0.00000000  0.00000000  1.000000e-02
  0.41000000  0.00000000  0.00000000  1.000000e-02
  0.42000000  0.00000000  0.00000000  1.000000e-02
  0.43000000  0.00000000  0.00000000  1.000000e-02
  0.44000000  0.00000000  0.00000000  1.000000e-02
  0.45000000  0.00000000  0.00000000  1.000000e-02
  0.46000000  0.00000000  0.00000000  1.000000e-02
  0.47000000  0.00000000  0.00000000  1.000000e-02
  0.48000000  0.00000000  0.00000000  1.000000e-02
  0.49000000  0.00000000  0.00000000  1.000000e-02
  0.50000000  0.00000000  0.00000000  1.000000e-02
  0.51000000  0.00000000  0.00000000  1.000000e-02
  0.52000000  0.00000000  0.00000000  1.000000e-02
  0.53000000  0.00000000  0.00000000  1.000000e-02
  0.54000000  0.00000000  0.00000000  1.000000e-02
  0.55000000  0.00000000  0.00000000  1.000000e-02
  0.56000000  0.00000000  0.00000000  1.000000e-02
  0.57000000  0.00000000  0.00000000  1.000000e-02
  0.58000000  0.00000000  0.00000000  1.000000e-02
  0.59000000  0.00000000  0.00000000  1.000000e-02
  0.60000000  0.00000000  0.00000000  1.000000e-02
  0.61000000  0.00000000  0.00000000  1.000000e-02
  0.62000000  0.00000000  0.00000000  1.000000e-02
  0.63000000  0.00000000  0.00000000  1.000000e-02
  0.64000000  0.00000000  0.00000000  1.000000e-02
  0.65000000  0.00000000  0.00000000  1.000000e-02
  0.66000000  0.00000000  0.00000000  1.000000e-02
  0.67000000  0.00000000  0.00000000  1.000000e-02
  0.68000000  0.00000000  0.00000000  1.000000e-02
  0.69000000  0.00000000  0.00000000  1.000000e-02
  0.70000000  0.00000000  0.00000000  1.000000e-02
  0.71000000  0.00000000  0.00000000  1.000000e-02
  0.72000000  0.00000000  0.00000000  1.000000e-02
  0.73000000  0.00000000  0.00000000  1.000000e-02
  0.74000000  0.00000000  0.00000000  1.000000e-02
  0.75000000  0.00000000  0.00000000  1.000000e-02
  0.76000000  0.00000000  0.00000000  1.000000e-02
  0.77000000  0.00000000  0.00000000  1.000000e-02
  0.78000000  0.00000000  0.00000000  1.000000e-02
  0.79000000  0.00000000  0.00000000  1.000000e-02
  0.80000000  0.00000000  0.00000000  1.000000e-02
  0.81000000  0.00000000  0.00000000  1.000000e-02
  0.82000000  0.00000000  0.00000000  1.000000e-02
  0.83000000  0.00000000  0.00000000  1.000000e-02
  0.84000000  0.00000000  0.00000000  1.000000e-02
  0.85000000  0.00000000  0.00000000  1.000000e-02
  0.86000000  0.00000000  0.00000000  1.000000e-02
  0.87000000  0.00000000  0.00000000  1.000000e-02
  0.88000000  0.00000000  0.00000000  1.000000e-02
  0.89000000  0.00000000  0.00000000  1.000000e-02
  0.90000000  0.00000000  0.00000000  1.000000e-02
  0.91000000  0.00000000  0.00000000  1.000000e-02
  0.92000000  0.00000000  0.00000000  1.000000e-02
  0.93000000  0.00000000  0.00000000  1.000000e-02
  0.94000000  0.00000000  0.00000000  1.000000e-02
  0.95000000  0.00000000  0.00000000  1.000000e-02
  0.96000000  0.00000000  0.00000000  1.000000e-02
  0.97000000  0.00000000  0.00000000  1.000000e-02
  0.98000000  0.00000000  0.00000000  1.000000e-02
  0.99000000  0.00000000  0.00000000  1.000000e-02
