&inputpp
   outdir = './outdir'
   prefix = 'carbyne'
   seedname = 'carbyne'
   spin_component = 'none'
   write_mmn = .true.
   write_amn = .true.
   write_unk = .true.
/

