!System
num_wann  = 4
num_bands = 98


!Projection
begin projections
C : px;py
end projections


!Job Control
exclude_bands : 1-2

!restart = plot
wannier_plot= .true.
wannier_plot_format = xcrysden
wannier_plot_supercell = 1 1 5



!disentanglement
!dis_win_min  = -25.0
!dis_win_max  = 7.0
dis_froz_min = -12.0
dis_froz_max = -0.6
dis_num_iter = 1000
dis_mix_ratio= 0.5
dis_conv_tol = 1.0E-10
dis_conv_window = 5


!Wannierise
num_iter = 10000
conv_tol = 1.0E-10
conv_window 	= 10
guiding_centres = .true.


! SYSTEM

begin unit_cell_cart
Ang
  20.000000   0.000000   0.000000
  0.000000  20.000000   0.000000
  0.000000   0.000000   2.565985410
end unit_cell_cart

begin atoms_cart
Ang
C	10.0000000000       10.0000000000       -0.0019756118
C	10.0000000000       10.0000000000        1.2517014809
end atoms_cart

! KPOINTS

mp_grid = 1 1 40
begin kpoints
  0.00000000  0.00000000  0.00000000
  0.00000000  0.00000000  0.02500000
  0.00000000  0.00000000  0.05000000
  0.00000000  0.00000000  0.07500000
  0.00000000  0.00000000  0.10000000
  0.00000000  0.00000000  0.12500000
  0.00000000  0.00000000  0.15000000
  0.00000000  0.00000000  0.17500000
  0.00000000  0.00000000  0.20000000
  0.00000000  0.00000000  0.22500000
  0.00000000  0.00000000  0.25000000
  0.00000000  0.00000000  0.27500000
  0.00000000  0.00000000  0.30000000
  0.00000000  0.00000000  0.32500000
  0.00000000  0.00000000  0.35000000
  0.00000000  0.00000000  0.37500000
  0.00000000  0.00000000  0.40000000
  0.00000000  0.00000000  0.42500000
  0.00000000  0.00000000  0.45000000
  0.00000000  0.00000000  0.47500000
  0.00000000  0.00000000  0.50000000
  0.00000000  0.00000000  0.52500000
  0.00000000  0.00000000  0.55000000
  0.00000000  0.00000000  0.57500000
  0.00000000  0.00000000  0.60000000
  0.00000000  0.00000000  0.62500000
  0.00000000  0.00000000  0.65000000
  0.00000000  0.00000000  0.67500000
  0.00000000  0.00000000  0.70000000
  0.00000000  0.00000000  0.72500000
  0.00000000  0.00000000  0.75000000
  0.00000000  0.00000000  0.77500000
  0.00000000  0.00000000  0.80000000
  0.00000000  0.00000000  0.82500000
  0.00000000  0.00000000  0.85000000
  0.00000000  0.00000000  0.87500000
  0.00000000  0.00000000  0.90000000
  0.00000000  0.00000000  0.92500000
  0.00000000  0.00000000  0.95000000
  0.00000000  0.00000000  0.97500000
end kpoints
