&CONTROL
    calculation   = "nscf"  
    restart_mode  = "from_scratch"
    prefix        = "carbyne"
    outdir        = "./outdir"
    pseudo_dir    = "../pseudopot"
    verbosity     = "high"
    tprnfor       = .true.  
    tstress       = .true.
    etot_conv_thr =  1.0d-8
    forc_conv_thr =  1.0d-7
/

&SYSTEM
    ibrav       = 0
    nat         = 2
    ntyp        = 1
    nbnd        = 100
    occupations = 'fixed'
!    occupations = "smearing"
!    smearing    = "gaussian"    
!    degauss     =  1.0d-9
    ecutwfc     =  50
    ecutrho     =  500
/

&ELECTRONS
    conv_thr         =  1.000e-09
    electron_maxstep =  200
    mixing_beta      =  7.00000e-01
    startingpot      = "atomic"
    startingwfc      = "atomic+random"
/

&IONS
    ion_dynamics = "bfgs"
/

CELL_PARAMETERS {angstrom}
 20.000000   0.000000   0.000000
  0.000000  20.000000   0.000000
  0.000000   0.000000   2.565985410

ATOMIC_SPECIES
C      12.01070  C.pbe-n-kjpaw_psl.1.0.0.UPF

ATOMIC_POSITIONS {angstrom}
C            10.0000000000       10.0000000000       -0.0019756118
C            10.0000000000       10.0000000000        1.2517014809

K_POINTS crystal
40
  0.00000000  0.00000000  0.00000000  2.500000e-02
  0.00000000  0.00000000  0.02500000  2.500000e-02
  0.00000000  0.00000000  0.05000000  2.500000e-02
  0.00000000  0.00000000  0.07500000  2.500000e-02
  0.00000000  0.00000000  0.10000000  2.500000e-02
  0.00000000  0.00000000  0.12500000  2.500000e-02
  0.00000000  0.00000000  0.15000000  2.500000e-02
  0.00000000  0.00000000  0.17500000  2.500000e-02
  0.00000000  0.00000000  0.20000000  2.500000e-02
  0.00000000  0.00000000  0.22500000  2.500000e-02
  0.00000000  0.00000000  0.25000000  2.500000e-02
  0.00000000  0.00000000  0.27500000  2.500000e-02
  0.00000000  0.00000000  0.30000000  2.500000e-02
  0.00000000  0.00000000  0.32500000  2.500000e-02
  0.00000000  0.00000000  0.35000000  2.500000e-02
  0.00000000  0.00000000  0.37500000  2.500000e-02
  0.00000000  0.00000000  0.40000000  2.500000e-02
  0.00000000  0.00000000  0.42500000  2.500000e-02
  0.00000000  0.00000000  0.45000000  2.500000e-02
  0.00000000  0.00000000  0.47500000  2.500000e-02
  0.00000000  0.00000000  0.50000000  2.500000e-02
  0.00000000  0.00000000  0.52500000  2.500000e-02
  0.00000000  0.00000000  0.55000000  2.500000e-02
  0.00000000  0.00000000  0.57500000  2.500000e-02
  0.00000000  0.00000000  0.60000000  2.500000e-02
  0.00000000  0.00000000  0.62500000  2.500000e-02
  0.00000000  0.00000000  0.65000000  2.500000e-02
  0.00000000  0.00000000  0.67500000  2.500000e-02
  0.00000000  0.00000000  0.70000000  2.500000e-02
  0.00000000  0.00000000  0.72500000  2.500000e-02
  0.00000000  0.00000000  0.75000000  2.500000e-02
  0.00000000  0.00000000  0.77500000  2.500000e-02
  0.00000000  0.00000000  0.80000000  2.500000e-02
  0.00000000  0.00000000  0.82500000  2.500000e-02
  0.00000000  0.00000000  0.85000000  2.500000e-02
  0.00000000  0.00000000  0.87500000  2.500000e-02
  0.00000000  0.00000000  0.90000000  2.500000e-02
  0.00000000  0.00000000  0.92500000  2.500000e-02
  0.00000000  0.00000000  0.95000000  2.500000e-02
  0.00000000  0.00000000  0.97500000  2.500000e-02
