&input
fildyn='carbyne.dyn', zasr='crystal', flfrc='flfrc'
/

