&bands
prefix = carbyne
outdir = './outdir'
filband = 'bands.dat'
lsym = .true.
/

