&projwfc
prefix = 'carbyne'
outdir = './outdir'
lsym = .false.
filproj = 'fatband'
/
