&inputpp
prefix = 'carbyne'
outdir = './outdir'
filplot= 'carbyne.rho'

plot_num = 0
/
&plot
nfile =1
filepp(1) = 'carbyne.rho'
weight(1) = 1.0
iflag = 3
output_format = 5
fileout = 'carbyne.rho.xsf'
/
