&inputpp
!prefix = 'carbyne'
!outdir = './outdir'
!filplot= 'carbyne.rho'
!
!plot_num = 0
/
&plot
nfile =1
filepp(1) = 'carbyne.rho'
weight(1) = 1.0
iflag = 3
output_format = 3
e1(1)= 1, e1(2)=0, e1(3)=0
e2(1)= 0, e2(2)=1, e2(3)=0
e3(1)= 0, e3(2)=0, e3(3)=1
x0(1)=0.5, x0(2)=0.0, x0(3)=0.0
nx=50, ny=50, nz=50
fileout = 'carbyne.rho.xsf'
/
