&CONTROL
    calculation   = "scf"  
    restart_mode  = "from_scratch"
    prefix        = "carbyne"
    outdir        = "./"
    pseudo_dir    = "./pseudo/"
    verbosity     = "high"
    tprnfor       = .true.  
    tstress       = .true.
    etot_conv_thr =  1.0d-5
    forc_conv_thr =  1.0d-4
/

&SYSTEM
    ibrav       = 0
    nat         = 8
    ntyp        = 1
!    nbnd        = 16
    occupations = 'fixed'
!    occupations = "smearing"
!    smearing    = "cold"    
!    degauss     =  1.0d-2
    ecutwfc     =  50
    ecutrho     =  400
/

&ELECTRONS
    conv_thr         =  1.000e-8
    electron_maxstep =  200
    mixing_beta      =  7.00000e-01
    startingpot      = "atomic"
    startingwfc      = "atomic+random"
/

!&IONS
!    ion_dynamics = "bfgs"
!/

!&CELL
!    cell_dofree    = "x"
!    cell_dynamics  = "bfgs"
!    press_conv_thr =  0.02
!/

K_POINTS {automatic}
 10  1  1  0 0 0

ATOMIC_SPECIES
C      12.01070  C.pbe-n-kjpaw_psl.1.0.0.UPF

CELL_PARAMETERS (angstrom)
  10.264061353   0.000000000   0.000000000
   0.000000000  10.000000000   0.000000000
   0.000000000   0.000000000  10.000000000

ATOMIC_POSITIONS (angstrom)
C             1.2626947291        5.0000000000        5.0000000000
C             0.0015423695        5.0000000000        5.0000000000
C             3.8286869172        5.0000000000        5.0000000000
C             2.5675726621        5.0000000000        5.0000000000
C             6.3947094437        5.0000000000        5.0000000000
C             5.1335638782        5.0000000000        5.0000000000
C             8.9607219823        5.0000000000        5.0000000000
C             7.6995901091        5.0000000000        5.0000000000
