&CONTROL
    calculation   = "scf"
    restart_mode  = "from_scratch"
    prefix        = "carbyne"
    outdir        = "./outdir"
    pseudo_dir    = "./pseudopot"
    verbosity     = "high"
    wf_collect    = .true.
!    tprnfor       = .true.  
!    tstress       = .true.
!    forc_conv_thr =  1.00000d-5
/

&SYSTEM
    ibrav       = 0
    nat         = 2
    ntyp        = 1
    occupations = "smearing"
    smearing    = "mv"    
    degauss     =  0.05
    ecutwfc     =  50
    ecutrho     =  500
/

&ELECTRONS
    conv_thr         =  1.0d-10
    electron_maxstep =  200
    mixing_beta      =  0.7
    startingpot      = "atomic"
    startingwfc      = "atomic+random"
/

&IONS
!    ion_dynamics = "bfgs"
/

&CELL
!    cell_dofree    = "z"
!    cell_dynamics  = "bfgs"
!    press_conv_thr =  0.05
/

K_POINTS {automatic}
 1  1  10  0 0 0

CELL_PARAMETERS {angstrom}
 20.000000   0.000000   0.000000
  0.000000  20.000000   0.000000
  0.000000   0.000000   2.573140

ATOMIC_SPECIES
C      12.01070  C.pbe-n-kjpaw_psl.1.0.0.UPF

ATOMIC_POSITIONS {angstrom}
C      10.000000  10.000000   0.000000
C      10.000000  10.000000   1.242253


